data;

/*Turnos*/
set S :=
    DH N E D L
    ;

/*Turnos Noturnos*/
param isNightS :=
    DH  0
    N  1
    E  0
    D  0
    L  0
    ;

/*Contratos*/
set C :=
    C0 C1 C2 C3
    ;

param nWE := 
     C3   4
     C2   4
     C1   4
     C0   4
    ;

/*Enfermeiros*/
set N :=
    N0 N1 N2 N3 N4 N5 N6 N7 N8 N9 N10 N11 N12 N13 N14 N15 N16 N17 N18 N19
    N20 N21 N22 N23 N24 N25 N26 N27 N28 N29
    ;

/*Turnos compatíveis com a enfermeira*/
set NS[N19] :=
    L D E N
    ;

set NS[N17] :=
    L D E N
    ;

set NS[N18] :=
    L D E N
    ;

set NS[N15] :=
    L D E N
    ;

set NS[N16] :=
    L D E N
    ;

set NS[N13] :=
    L D E N DH
    ;

set NS[N14] :=
    L D E N
    ;

set NS[N11] :=
    L D E N
    ;

set NS[N12] :=
    L D E N
    ;

set NS[N21] :=
    L D E N
    ;

set NS[N20] :=
    L D E N
    ;

set NS[N22] :=
    L D E N
    ;

set NS[N23] :=
    L D E N
    ;

set NS[N24] :=
    L D E N
    ;

set NS[N25] :=
    L D E N
    ;

set NS[N26] :=
    L D E N
    ;

set NS[N27] :=
    L D E N
    ;

set NS[N28] :=
    L D E N
    ;

set NS[N29] :=
    L D E N DH
    ;

set NS[N3] :=
    L D E N
    ;

set NS[N2] :=
    L D E N
    ;

set NS[N10] :=
    L D E N
    ;

set NS[N1] :=
    L D E N
    ;

set NS[N0] :=
    L D E N
    ;

set NS[N7] :=
    L D E N
    ;

set NS[N6] :=
    L D E N
    ;

set NS[N5] :=
    L D E N
    ;

set NS[N4] :=
    L D E N
    ;

set NS[N9] :=
    L D E N
    ;

set NS[N8] :=
    L D E N
    ;

/*Dias requisitados para não trabalhar*/
param nx :=
    ;

/*Dias*/
set D :=
    1 2 3 4 5 6 7 8 9 10 11 12 13 14 15 16 17 18 19 20
    21 22 23 24 25 26 27 28
    ;

/*dias correspondentes ao i-esimo final de semana*/
set WE[C3, 1] :=
   05 06
    ;
set WE[C3, 2] :=
   12 13
    ;
set WE[C3, 3] :=
   19 20
    ;
set WE[C3, 4] :=
   26 27
    ;
set WE[C2, 1] :=
   05 06
    ;
set WE[C2, 2] :=
   12 13
    ;
set WE[C2, 3] :=
   19 20
    ;
set WE[C2, 4] :=
   26 27
    ;
set WE[C1, 1] :=
   05 06
    ;
set WE[C1, 2] :=
   12 13
    ;
set WE[C1, 3] :=
   19 20
    ;
set WE[C1, 4] :=
   26 27
    ;
set WE[C0, 1] :=
   05 06
    ;
set WE[C0, 2] :=
   12 13
    ;
set WE[C0, 3] :=
   19 20
    ;
set WE[C0, 4] :=
   26 27
    ;

/*Número de padrões de FDS do contrato C*/
param nWP := 
     C3   256
     C2   256
     C1   256
     C0   256
    ;

/*    05 06 12 13 19 20 26 27  */
   0 0 0 0 0 0 0 0 
   0 0 0 0 0 0 0 1 
   0 0 0 0 0 0 1 0 
   0 0 0 0 0 0 1 1 
   0 0 0 0 0 1 0 0 
   0 0 0 0 0 1 0 1 
   0 0 0 0 0 1 1 0 
   0 0 0 0 0 1 1 1 
   0 0 0 0 1 0 0 0 
   0 0 0 0 1 0 0 1 
   0 0 0 0 1 0 1 0 
   0 0 0 0 1 0 1 1 
   0 0 0 0 1 1 0 0 
   0 0 0 0 1 1 0 1 
   0 0 0 0 1 1 1 0 
   0 0 0 0 1 1 1 1 
   0 0 0 1 0 0 0 0 
   0 0 0 1 0 0 0 1 
   0 0 0 1 0 0 1 0 
   0 0 0 1 0 0 1 1 
   0 0 0 1 0 1 0 0 
   0 0 0 1 0 1 0 1 
   0 0 0 1 0 1 1 0 
   0 0 0 1 0 1 1 1 
   0 0 0 1 1 0 0 0 
   0 0 0 1 1 0 0 1 
   0 0 0 1 1 0 1 0 
   0 0 0 1 1 0 1 1 
   0 0 0 1 1 1 0 0 
   0 0 0 1 1 1 0 1 
   0 0 0 1 1 1 1 0 
   0 0 0 1 1 1 1 1 
   0 0 1 0 0 0 0 0 
   0 0 1 0 0 0 0 1 
   0 0 1 0 0 0 1 0 
   0 0 1 0 0 0 1 1 
   0 0 1 0 0 1 0 0 
   0 0 1 0 0 1 0 1 
   0 0 1 0 0 1 1 0 
   0 0 1 0 0 1 1 1 
   0 0 1 0 1 0 0 0 
   0 0 1 0 1 0 0 1 
   0 0 1 0 1 0 1 0 
   0 0 1 0 1 0 1 1 
   0 0 1 0 1 1 0 0 
   0 0 1 0 1 1 0 1 
   0 0 1 0 1 1 1 0 
   0 0 1 0 1 1 1 1 
   0 0 1 1 0 0 0 0 
   0 0 1 1 0 0 0 1 
   0 0 1 1 0 0 1 0 
   0 0 1 1 0 0 1 1 
   0 0 1 1 0 1 0 0 
   0 0 1 1 0 1 0 1 
   0 0 1 1 0 1 1 0 
   0 0 1 1 0 1 1 1 
   0 0 1 1 1 0 0 0 
   0 0 1 1 1 0 0 1 
   0 0 1 1 1 0 1 0 
   0 0 1 1 1 0 1 1 
   0 0 1 1 1 1 0 0 
   0 0 1 1 1 1 0 1 
   0 0 1 1 1 1 1 0 
   0 0 1 1 1 1 1 1 
   0 1 0 0 0 0 0 0 
   0 1 0 0 0 0 0 1 
   0 1 0 0 0 0 1 0 
   0 1 0 0 0 0 1 1 
   0 1 0 0 0 1 0 0 
   0 1 0 0 0 1 0 1 
   0 1 0 0 0 1 1 0 
   0 1 0 0 0 1 1 1 
   0 1 0 0 1 0 0 0 
   0 1 0 0 1 0 0 1 
   0 1 0 0 1 0 1 0 
   0 1 0 0 1 0 1 1 
   0 1 0 0 1 1 0 0 
   0 1 0 0 1 1 0 1 
   0 1 0 0 1 1 1 0 
   0 1 0 0 1 1 1 1 
   0 1 0 1 0 0 0 0 
   0 1 0 1 0 0 0 1 
   0 1 0 1 0 0 1 0 
   0 1 0 1 0 0 1 1 
   0 1 0 1 0 1 0 0 
   0 1 0 1 0 1 0 1 
   0 1 0 1 0 1 1 0 
   0 1 0 1 0 1 1 1 
   0 1 0 1 1 0 0 0 
   0 1 0 1 1 0 0 1 
   0 1 0 1 1 0 1 0 
   0 1 0 1 1 0 1 1 
   0 1 0 1 1 1 0 0 
   0 1 0 1 1 1 0 1 
   0 1 0 1 1 1 1 0 
   0 1 0 1 1 1 1 1 
   0 1 1 0 0 0 0 0 
   0 1 1 0 0 0 0 1 
   0 1 1 0 0 0 1 0 
   0 1 1 0 0 0 1 1 
   0 1 1 0 0 1 0 0 
   0 1 1 0 0 1 0 1 
   0 1 1 0 0 1 1 0 
   0 1 1 0 0 1 1 1 
   0 1 1 0 1 0 0 0 
   0 1 1 0 1 0 0 1 
   0 1 1 0 1 0 1 0 
   0 1 1 0 1 0 1 1 
   0 1 1 0 1 1 0 0 
   0 1 1 0 1 1 0 1 
   0 1 1 0 1 1 1 0 
   0 1 1 0 1 1 1 1 
   0 1 1 1 0 0 0 0 
   0 1 1 1 0 0 0 1 
   0 1 1 1 0 0 1 0 
   0 1 1 1 0 0 1 1 
   0 1 1 1 0 1 0 0 
   0 1 1 1 0 1 0 1 
   0 1 1 1 0 1 1 0 
   0 1 1 1 0 1 1 1 
   0 1 1 1 1 0 0 0 
   0 1 1 1 1 0 0 1 
   0 1 1 1 1 0 1 0 
   0 1 1 1 1 0 1 1 
   0 1 1 1 1 1 0 0 
   0 1 1 1 1 1 0 1 
   0 1 1 1 1 1 1 0 
   0 1 1 1 1 1 1 1 
   1 0 0 0 0 0 0 0 
   1 0 0 0 0 0 0 1 
   1 0 0 0 0 0 1 0 
   1 0 0 0 0 0 1 1 
   1 0 0 0 0 1 0 0 
   1 0 0 0 0 1 0 1 
   1 0 0 0 0 1 1 0 
   1 0 0 0 0 1 1 1 
   1 0 0 0 1 0 0 0 
   1 0 0 0 1 0 0 1 
   1 0 0 0 1 0 1 0 
   1 0 0 0 1 0 1 1 
   1 0 0 0 1 1 0 0 
   1 0 0 0 1 1 0 1 
   1 0 0 0 1 1 1 0 
   1 0 0 0 1 1 1 1 
   1 0 0 1 0 0 0 0 
   1 0 0 1 0 0 0 1 
   1 0 0 1 0 0 1 0 
   1 0 0 1 0 0 1 1 
   1 0 0 1 0 1 0 0 
   1 0 0 1 0 1 0 1 
   1 0 0 1 0 1 1 0 
   1 0 0 1 0 1 1 1 
   1 0 0 1 1 0 0 0 
   1 0 0 1 1 0 0 1 
   1 0 0 1 1 0 1 0 
   1 0 0 1 1 0 1 1 
   1 0 0 1 1 1 0 0 
   1 0 0 1 1 1 0 1 
   1 0 0 1 1 1 1 0 
   1 0 0 1 1 1 1 1 
   1 0 1 0 0 0 0 0 
   1 0 1 0 0 0 0 1 
   1 0 1 0 0 0 1 0 
   1 0 1 0 0 0 1 1 
   1 0 1 0 0 1 0 0 
   1 0 1 0 0 1 0 1 
   1 0 1 0 0 1 1 0 
   1 0 1 0 0 1 1 1 
   1 0 1 0 1 0 0 0 
   1 0 1 0 1 0 0 1 
   1 0 1 0 1 0 1 0 
   1 0 1 0 1 0 1 1 
   1 0 1 0 1 1 0 0 
   1 0 1 0 1 1 0 1 
   1 0 1 0 1 1 1 0 
   1 0 1 0 1 1 1 1 
   1 0 1 1 0 0 0 0 
   1 0 1 1 0 0 0 1 
   1 0 1 1 0 0 1 0 
   1 0 1 1 0 0 1 1 
   1 0 1 1 0 1 0 0 
   1 0 1 1 0 1 0 1 
   1 0 1 1 0 1 1 0 
   1 0 1 1 0 1 1 1 
   1 0 1 1 1 0 0 0 
   1 0 1 1 1 0 0 1 
   1 0 1 1 1 0 1 0 
   1 0 1 1 1 0 1 1 
   1 0 1 1 1 1 0 0 
   1 0 1 1 1 1 0 1 
   1 0 1 1 1 1 1 0 
   1 0 1 1 1 1 1 1 
   1 1 0 0 0 0 0 0 
   1 1 0 0 0 0 0 1 
   1 1 0 0 0 0 1 0 
   1 1 0 0 0 0 1 1 
   1 1 0 0 0 1 0 0 
   1 1 0 0 0 1 0 1 
   1 1 0 0 0 1 1 0 
   1 1 0 0 0 1 1 1 
   1 1 0 0 1 0 0 0 
   1 1 0 0 1 0 0 1 
   1 1 0 0 1 0 1 0 
   1 1 0 0 1 0 1 1 
   1 1 0 0 1 1 0 0 
   1 1 0 0 1 1 0 1 
   1 1 0 0 1 1 1 0 
   1 1 0 0 1 1 1 1 
   1 1 0 1 0 0 0 0 
   1 1 0 1 0 0 0 1 
   1 1 0 1 0 0 1 0 
   1 1 0 1 0 0 1 1 
   1 1 0 1 0 1 0 0 
   1 1 0 1 0 1 0 1 
   1 1 0 1 0 1 1 0 
   1 1 0 1 0 1 1 1 
   1 1 0 1 1 0 0 0 
   1 1 0 1 1 0 0 1 
   1 1 0 1 1 0 1 0 
   1 1 0 1 1 0 1 1 
   1 1 0 1 1 1 0 0 
   1 1 0 1 1 1 0 1 
   1 1 0 1 1 1 1 0 
   1 1 0 1 1 1 1 1 
   1 1 1 0 0 0 0 0 
   1 1 1 0 0 0 0 1 
   1 1 1 0 0 0 1 0 
   1 1 1 0 0 0 1 1 
   1 1 1 0 0 1 0 0 
   1 1 1 0 0 1 0 1 
   1 1 1 0 0 1 1 0 
   1 1 1 0 0 1 1 1 
   1 1 1 0 1 0 0 0 
   1 1 1 0 1 0 0 1 
   1 1 1 0 1 0 1 0 
   1 1 1 0 1 0 1 1 
   1 1 1 0 1 1 0 0 
   1 1 1 0 1 1 0 1 
   1 1 1 0 1 1 1 0 
   1 1 1 0 1 1 1 1 
   1 1 1 1 0 0 0 0 
   1 1 1 1 0 0 0 1 
   1 1 1 1 0 0 1 0 
   1 1 1 1 0 0 1 1 
   1 1 1 1 0 1 0 0 
   1 1 1 1 0 1 0 1 
   1 1 1 1 0 1 1 0 
   1 1 1 1 0 1 1 1 
   1 1 1 1 1 0 0 0 
   1 1 1 1 1 0 0 1 
   1 1 1 1 1 0 1 0 
   1 1 1 1 1 0 1 1 
   1 1 1 1 1 1 0 0 
   1 1 1 1 1 1 0 1 
   1 1 1 1 1 1 1 0 
   1 1 1 1 1 1 1 1 
   
/*    05 06 12 13 19 20 26 27  */
   0 0 0 0 0 0 0 0 
   0 0 0 0 0 0 0 1 
   0 0 0 0 0 0 1 0 
   0 0 0 0 0 0 1 1 
   0 0 0 0 0 1 0 0 
   0 0 0 0 0 1 0 1 
   0 0 0 0 0 1 1 0 
   0 0 0 0 0 1 1 1 
   0 0 0 0 1 0 0 0 
   0 0 0 0 1 0 0 1 
   0 0 0 0 1 0 1 0 
   0 0 0 0 1 0 1 1 
   0 0 0 0 1 1 0 0 
   0 0 0 0 1 1 0 1 
   0 0 0 0 1 1 1 0 
   0 0 0 0 1 1 1 1 
   0 0 0 1 0 0 0 0 
   0 0 0 1 0 0 0 1 
   0 0 0 1 0 0 1 0 
   0 0 0 1 0 0 1 1 
   0 0 0 1 0 1 0 0 
   0 0 0 1 0 1 0 1 
   0 0 0 1 0 1 1 0 
   0 0 0 1 0 1 1 1 
   0 0 0 1 1 0 0 0 
   0 0 0 1 1 0 0 1 
   0 0 0 1 1 0 1 0 
   0 0 0 1 1 0 1 1 
   0 0 0 1 1 1 0 0 
   0 0 0 1 1 1 0 1 
   0 0 0 1 1 1 1 0 
   0 0 0 1 1 1 1 1 
   0 0 1 0 0 0 0 0 
   0 0 1 0 0 0 0 1 
   0 0 1 0 0 0 1 0 
   0 0 1 0 0 0 1 1 
   0 0 1 0 0 1 0 0 
   0 0 1 0 0 1 0 1 
   0 0 1 0 0 1 1 0 
   0 0 1 0 0 1 1 1 
   0 0 1 0 1 0 0 0 
   0 0 1 0 1 0 0 1 
   0 0 1 0 1 0 1 0 
   0 0 1 0 1 0 1 1 
   0 0 1 0 1 1 0 0 
   0 0 1 0 1 1 0 1 
   0 0 1 0 1 1 1 0 
   0 0 1 0 1 1 1 1 
   0 0 1 1 0 0 0 0 
   0 0 1 1 0 0 0 1 
   0 0 1 1 0 0 1 0 
   0 0 1 1 0 0 1 1 
   0 0 1 1 0 1 0 0 
   0 0 1 1 0 1 0 1 
   0 0 1 1 0 1 1 0 
   0 0 1 1 0 1 1 1 
   0 0 1 1 1 0 0 0 
   0 0 1 1 1 0 0 1 
   0 0 1 1 1 0 1 0 
   0 0 1 1 1 0 1 1 
   0 0 1 1 1 1 0 0 
   0 0 1 1 1 1 0 1 
   0 0 1 1 1 1 1 0 
   0 0 1 1 1 1 1 1 
   0 1 0 0 0 0 0 0 
   0 1 0 0 0 0 0 1 
   0 1 0 0 0 0 1 0 
   0 1 0 0 0 0 1 1 
   0 1 0 0 0 1 0 0 
   0 1 0 0 0 1 0 1 
   0 1 0 0 0 1 1 0 
   0 1 0 0 0 1 1 1 
   0 1 0 0 1 0 0 0 
   0 1 0 0 1 0 0 1 
   0 1 0 0 1 0 1 0 
   0 1 0 0 1 0 1 1 
   0 1 0 0 1 1 0 0 
   0 1 0 0 1 1 0 1 
   0 1 0 0 1 1 1 0 
   0 1 0 0 1 1 1 1 
   0 1 0 1 0 0 0 0 
   0 1 0 1 0 0 0 1 
   0 1 0 1 0 0 1 0 
   0 1 0 1 0 0 1 1 
   0 1 0 1 0 1 0 0 
   0 1 0 1 0 1 0 1 
   0 1 0 1 0 1 1 0 
   0 1 0 1 0 1 1 1 
   0 1 0 1 1 0 0 0 
   0 1 0 1 1 0 0 1 
   0 1 0 1 1 0 1 0 
   0 1 0 1 1 0 1 1 
   0 1 0 1 1 1 0 0 
   0 1 0 1 1 1 0 1 
   0 1 0 1 1 1 1 0 
   0 1 0 1 1 1 1 1 
   0 1 1 0 0 0 0 0 
   0 1 1 0 0 0 0 1 
   0 1 1 0 0 0 1 0 
   0 1 1 0 0 0 1 1 
   0 1 1 0 0 1 0 0 
   0 1 1 0 0 1 0 1 
   0 1 1 0 0 1 1 0 
   0 1 1 0 0 1 1 1 
   0 1 1 0 1 0 0 0 
   0 1 1 0 1 0 0 1 
   0 1 1 0 1 0 1 0 
   0 1 1 0 1 0 1 1 
   0 1 1 0 1 1 0 0 
   0 1 1 0 1 1 0 1 
   0 1 1 0 1 1 1 0 
   0 1 1 0 1 1 1 1 
   0 1 1 1 0 0 0 0 
   0 1 1 1 0 0 0 1 
   0 1 1 1 0 0 1 0 
   0 1 1 1 0 0 1 1 
   0 1 1 1 0 1 0 0 
   0 1 1 1 0 1 0 1 
   0 1 1 1 0 1 1 0 
   0 1 1 1 0 1 1 1 
   0 1 1 1 1 0 0 0 
   0 1 1 1 1 0 0 1 
   0 1 1 1 1 0 1 0 
   0 1 1 1 1 0 1 1 
   0 1 1 1 1 1 0 0 
   0 1 1 1 1 1 0 1 
   0 1 1 1 1 1 1 0 
   0 1 1 1 1 1 1 1 
   1 0 0 0 0 0 0 0 
   1 0 0 0 0 0 0 1 
   1 0 0 0 0 0 1 0 
   1 0 0 0 0 0 1 1 
   1 0 0 0 0 1 0 0 
   1 0 0 0 0 1 0 1 
   1 0 0 0 0 1 1 0 
   1 0 0 0 0 1 1 1 
   1 0 0 0 1 0 0 0 
   1 0 0 0 1 0 0 1 
   1 0 0 0 1 0 1 0 
   1 0 0 0 1 0 1 1 
   1 0 0 0 1 1 0 0 
   1 0 0 0 1 1 0 1 
   1 0 0 0 1 1 1 0 
   1 0 0 0 1 1 1 1 
   1 0 0 1 0 0 0 0 
   1 0 0 1 0 0 0 1 
   1 0 0 1 0 0 1 0 
   1 0 0 1 0 0 1 1 
   1 0 0 1 0 1 0 0 
   1 0 0 1 0 1 0 1 
   1 0 0 1 0 1 1 0 
   1 0 0 1 0 1 1 1 
   1 0 0 1 1 0 0 0 
   1 0 0 1 1 0 0 1 
   1 0 0 1 1 0 1 0 
   1 0 0 1 1 0 1 1 
   1 0 0 1 1 1 0 0 
   1 0 0 1 1 1 0 1 
   1 0 0 1 1 1 1 0 
   1 0 0 1 1 1 1 1 
   1 0 1 0 0 0 0 0 
   1 0 1 0 0 0 0 1 
   1 0 1 0 0 0 1 0 
   1 0 1 0 0 0 1 1 
   1 0 1 0 0 1 0 0 
   1 0 1 0 0 1 0 1 
   1 0 1 0 0 1 1 0 
   1 0 1 0 0 1 1 1 
   1 0 1 0 1 0 0 0 
   1 0 1 0 1 0 0 1 
   1 0 1 0 1 0 1 0 
   1 0 1 0 1 0 1 1 
   1 0 1 0 1 1 0 0 
   1 0 1 0 1 1 0 1 
   1 0 1 0 1 1 1 0 
   1 0 1 0 1 1 1 1 
   1 0 1 1 0 0 0 0 
   1 0 1 1 0 0 0 1 
   1 0 1 1 0 0 1 0 
   1 0 1 1 0 0 1 1 
   1 0 1 1 0 1 0 0 
   1 0 1 1 0 1 0 1 
   1 0 1 1 0 1 1 0 
   1 0 1 1 0 1 1 1 
   1 0 1 1 1 0 0 0 
   1 0 1 1 1 0 0 1 
   1 0 1 1 1 0 1 0 
   1 0 1 1 1 0 1 1 
   1 0 1 1 1 1 0 0 
   1 0 1 1 1 1 0 1 
   1 0 1 1 1 1 1 0 
   1 0 1 1 1 1 1 1 
   1 1 0 0 0 0 0 0 
   1 1 0 0 0 0 0 1 
   1 1 0 0 0 0 1 0 
   1 1 0 0 0 0 1 1 
   1 1 0 0 0 1 0 0 
   1 1 0 0 0 1 0 1 
   1 1 0 0 0 1 1 0 
   1 1 0 0 0 1 1 1 
   1 1 0 0 1 0 0 0 
   1 1 0 0 1 0 0 1 
   1 1 0 0 1 0 1 0 
   1 1 0 0 1 0 1 1 
   1 1 0 0 1 1 0 0 
   1 1 0 0 1 1 0 1 
   1 1 0 0 1 1 1 0 
   1 1 0 0 1 1 1 1 
   1 1 0 1 0 0 0 0 
   1 1 0 1 0 0 0 1 
   1 1 0 1 0 0 1 0 
   1 1 0 1 0 0 1 1 
   1 1 0 1 0 1 0 0 
   1 1 0 1 0 1 0 1 
   1 1 0 1 0 1 1 0 
   1 1 0 1 0 1 1 1 
   1 1 0 1 1 0 0 0 
   1 1 0 1 1 0 0 1 
   1 1 0 1 1 0 1 0 
   1 1 0 1 1 0 1 1 
   1 1 0 1 1 1 0 0 
   1 1 0 1 1 1 0 1 
   1 1 0 1 1 1 1 0 
   1 1 0 1 1 1 1 1 
   1 1 1 0 0 0 0 0 
   1 1 1 0 0 0 0 1 
   1 1 1 0 0 0 1 0 
   1 1 1 0 0 0 1 1 
   1 1 1 0 0 1 0 0 
   1 1 1 0 0 1 0 1 
   1 1 1 0 0 1 1 0 
   1 1 1 0 0 1 1 1 
   1 1 1 0 1 0 0 0 
   1 1 1 0 1 0 0 1 
   1 1 1 0 1 0 1 0 
   1 1 1 0 1 0 1 1 
   1 1 1 0 1 1 0 0 
   1 1 1 0 1 1 0 1 
   1 1 1 0 1 1 1 0 
   1 1 1 0 1 1 1 1 
   1 1 1 1 0 0 0 0 
   1 1 1 1 0 0 0 1 
   1 1 1 1 0 0 1 0 
   1 1 1 1 0 0 1 1 
   1 1 1 1 0 1 0 0 
   1 1 1 1 0 1 0 1 
   1 1 1 1 0 1 1 0 
   1 1 1 1 0 1 1 1 
   1 1 1 1 1 0 0 0 
   1 1 1 1 1 0 0 1 
   1 1 1 1 1 0 1 0 
   1 1 1 1 1 0 1 1 
   1 1 1 1 1 1 0 0 
   1 1 1 1 1 1 0 1 
   1 1 1 1 1 1 1 0 
   1 1 1 1 1 1 1 1 
   
/*    05 06 12 13 19 20 26 27  */
   0 0 0 0 0 0 0 0 
   0 0 0 0 0 0 0 1 
   0 0 0 0 0 0 1 0 
   0 0 0 0 0 0 1 1 
   0 0 0 0 0 1 0 0 
   0 0 0 0 0 1 0 1 
   0 0 0 0 0 1 1 0 
   0 0 0 0 0 1 1 1 
   0 0 0 0 1 0 0 0 
   0 0 0 0 1 0 0 1 
   0 0 0 0 1 0 1 0 
   0 0 0 0 1 0 1 1 
   0 0 0 0 1 1 0 0 
   0 0 0 0 1 1 0 1 
   0 0 0 0 1 1 1 0 
   0 0 0 0 1 1 1 1 
   0 0 0 1 0 0 0 0 
   0 0 0 1 0 0 0 1 
   0 0 0 1 0 0 1 0 
   0 0 0 1 0 0 1 1 
   0 0 0 1 0 1 0 0 
   0 0 0 1 0 1 0 1 
   0 0 0 1 0 1 1 0 
   0 0 0 1 0 1 1 1 
   0 0 0 1 1 0 0 0 
   0 0 0 1 1 0 0 1 
   0 0 0 1 1 0 1 0 
   0 0 0 1 1 0 1 1 
   0 0 0 1 1 1 0 0 
   0 0 0 1 1 1 0 1 
   0 0 0 1 1 1 1 0 
   0 0 0 1 1 1 1 1 
   0 0 1 0 0 0 0 0 
   0 0 1 0 0 0 0 1 
   0 0 1 0 0 0 1 0 
   0 0 1 0 0 0 1 1 
   0 0 1 0 0 1 0 0 
   0 0 1 0 0 1 0 1 
   0 0 1 0 0 1 1 0 
   0 0 1 0 0 1 1 1 
   0 0 1 0 1 0 0 0 
   0 0 1 0 1 0 0 1 
   0 0 1 0 1 0 1 0 
   0 0 1 0 1 0 1 1 
   0 0 1 0 1 1 0 0 
   0 0 1 0 1 1 0 1 
   0 0 1 0 1 1 1 0 
   0 0 1 0 1 1 1 1 
   0 0 1 1 0 0 0 0 
   0 0 1 1 0 0 0 1 
   0 0 1 1 0 0 1 0 
   0 0 1 1 0 0 1 1 
   0 0 1 1 0 1 0 0 
   0 0 1 1 0 1 0 1 
   0 0 1 1 0 1 1 0 
   0 0 1 1 0 1 1 1 
   0 0 1 1 1 0 0 0 
   0 0 1 1 1 0 0 1 
   0 0 1 1 1 0 1 0 
   0 0 1 1 1 0 1 1 
   0 0 1 1 1 1 0 0 
   0 0 1 1 1 1 0 1 
   0 0 1 1 1 1 1 0 
   0 0 1 1 1 1 1 1 
   0 1 0 0 0 0 0 0 
   0 1 0 0 0 0 0 1 
   0 1 0 0 0 0 1 0 
   0 1 0 0 0 0 1 1 
   0 1 0 0 0 1 0 0 
   0 1 0 0 0 1 0 1 
   0 1 0 0 0 1 1 0 
   0 1 0 0 0 1 1 1 
   0 1 0 0 1 0 0 0 
   0 1 0 0 1 0 0 1 
   0 1 0 0 1 0 1 0 
   0 1 0 0 1 0 1 1 
   0 1 0 0 1 1 0 0 
   0 1 0 0 1 1 0 1 
   0 1 0 0 1 1 1 0 
   0 1 0 0 1 1 1 1 
   0 1 0 1 0 0 0 0 
   0 1 0 1 0 0 0 1 
   0 1 0 1 0 0 1 0 
   0 1 0 1 0 0 1 1 
   0 1 0 1 0 1 0 0 
   0 1 0 1 0 1 0 1 
   0 1 0 1 0 1 1 0 
   0 1 0 1 0 1 1 1 
   0 1 0 1 1 0 0 0 
   0 1 0 1 1 0 0 1 
   0 1 0 1 1 0 1 0 
   0 1 0 1 1 0 1 1 
   0 1 0 1 1 1 0 0 
   0 1 0 1 1 1 0 1 
   0 1 0 1 1 1 1 0 
   0 1 0 1 1 1 1 1 
   0 1 1 0 0 0 0 0 
   0 1 1 0 0 0 0 1 
   0 1 1 0 0 0 1 0 
   0 1 1 0 0 0 1 1 
   0 1 1 0 0 1 0 0 
   0 1 1 0 0 1 0 1 
   0 1 1 0 0 1 1 0 
   0 1 1 0 0 1 1 1 
   0 1 1 0 1 0 0 0 
   0 1 1 0 1 0 0 1 
   0 1 1 0 1 0 1 0 
   0 1 1 0 1 0 1 1 
   0 1 1 0 1 1 0 0 
   0 1 1 0 1 1 0 1 
   0 1 1 0 1 1 1 0 
   0 1 1 0 1 1 1 1 
   0 1 1 1 0 0 0 0 
   0 1 1 1 0 0 0 1 
   0 1 1 1 0 0 1 0 
   0 1 1 1 0 0 1 1 
   0 1 1 1 0 1 0 0 
   0 1 1 1 0 1 0 1 
   0 1 1 1 0 1 1 0 
   0 1 1 1 0 1 1 1 
   0 1 1 1 1 0 0 0 
   0 1 1 1 1 0 0 1 
   0 1 1 1 1 0 1 0 
   0 1 1 1 1 0 1 1 
   0 1 1 1 1 1 0 0 
   0 1 1 1 1 1 0 1 
   0 1 1 1 1 1 1 0 
   0 1 1 1 1 1 1 1 
   1 0 0 0 0 0 0 0 
   1 0 0 0 0 0 0 1 
   1 0 0 0 0 0 1 0 
   1 0 0 0 0 0 1 1 
   1 0 0 0 0 1 0 0 
   1 0 0 0 0 1 0 1 
   1 0 0 0 0 1 1 0 
   1 0 0 0 0 1 1 1 
   1 0 0 0 1 0 0 0 
   1 0 0 0 1 0 0 1 
   1 0 0 0 1 0 1 0 
   1 0 0 0 1 0 1 1 
   1 0 0 0 1 1 0 0 
   1 0 0 0 1 1 0 1 
   1 0 0 0 1 1 1 0 
   1 0 0 0 1 1 1 1 
   1 0 0 1 0 0 0 0 
   1 0 0 1 0 0 0 1 
   1 0 0 1 0 0 1 0 
   1 0 0 1 0 0 1 1 
   1 0 0 1 0 1 0 0 
   1 0 0 1 0 1 0 1 
   1 0 0 1 0 1 1 0 
   1 0 0 1 0 1 1 1 
   1 0 0 1 1 0 0 0 
   1 0 0 1 1 0 0 1 
   1 0 0 1 1 0 1 0 
   1 0 0 1 1 0 1 1 
   1 0 0 1 1 1 0 0 
   1 0 0 1 1 1 0 1 
   1 0 0 1 1 1 1 0 
   1 0 0 1 1 1 1 1 
   1 0 1 0 0 0 0 0 
   1 0 1 0 0 0 0 1 
   1 0 1 0 0 0 1 0 
   1 0 1 0 0 0 1 1 
   1 0 1 0 0 1 0 0 
   1 0 1 0 0 1 0 1 
   1 0 1 0 0 1 1 0 
   1 0 1 0 0 1 1 1 
   1 0 1 0 1 0 0 0 
   1 0 1 0 1 0 0 1 
   1 0 1 0 1 0 1 0 
   1 0 1 0 1 0 1 1 
   1 0 1 0 1 1 0 0 
   1 0 1 0 1 1 0 1 
   1 0 1 0 1 1 1 0 
   1 0 1 0 1 1 1 1 
   1 0 1 1 0 0 0 0 
   1 0 1 1 0 0 0 1 
   1 0 1 1 0 0 1 0 
   1 0 1 1 0 0 1 1 
   1 0 1 1 0 1 0 0 
   1 0 1 1 0 1 0 1 
   1 0 1 1 0 1 1 0 
   1 0 1 1 0 1 1 1 
   1 0 1 1 1 0 0 0 
   1 0 1 1 1 0 0 1 
   1 0 1 1 1 0 1 0 
   1 0 1 1 1 0 1 1 
   1 0 1 1 1 1 0 0 
   1 0 1 1 1 1 0 1 
   1 0 1 1 1 1 1 0 
   1 0 1 1 1 1 1 1 
   1 1 0 0 0 0 0 0 
   1 1 0 0 0 0 0 1 
   1 1 0 0 0 0 1 0 
   1 1 0 0 0 0 1 1 
   1 1 0 0 0 1 0 0 
   1 1 0 0 0 1 0 1 
   1 1 0 0 0 1 1 0 
   1 1 0 0 0 1 1 1 
   1 1 0 0 1 0 0 0 
   1 1 0 0 1 0 0 1 
   1 1 0 0 1 0 1 0 
   1 1 0 0 1 0 1 1 
   1 1 0 0 1 1 0 0 
   1 1 0 0 1 1 0 1 
   1 1 0 0 1 1 1 0 
   1 1 0 0 1 1 1 1 
   1 1 0 1 0 0 0 0 
   1 1 0 1 0 0 0 1 
   1 1 0 1 0 0 1 0 
   1 1 0 1 0 0 1 1 
   1 1 0 1 0 1 0 0 
   1 1 0 1 0 1 0 1 
   1 1 0 1 0 1 1 0 
   1 1 0 1 0 1 1 1 
   1 1 0 1 1 0 0 0 
   1 1 0 1 1 0 0 1 
   1 1 0 1 1 0 1 0 
   1 1 0 1 1 0 1 1 
   1 1 0 1 1 1 0 0 
   1 1 0 1 1 1 0 1 
   1 1 0 1 1 1 1 0 
   1 1 0 1 1 1 1 1 
   1 1 1 0 0 0 0 0 
   1 1 1 0 0 0 0 1 
   1 1 1 0 0 0 1 0 
   1 1 1 0 0 0 1 1 
   1 1 1 0 0 1 0 0 
   1 1 1 0 0 1 0 1 
   1 1 1 0 0 1 1 0 
   1 1 1 0 0 1 1 1 
   1 1 1 0 1 0 0 0 
   1 1 1 0 1 0 0 1 
   1 1 1 0 1 0 1 0 
   1 1 1 0 1 0 1 1 
   1 1 1 0 1 1 0 0 
   1 1 1 0 1 1 0 1 
   1 1 1 0 1 1 1 0 
   1 1 1 0 1 1 1 1 
   1 1 1 1 0 0 0 0 
   1 1 1 1 0 0 0 1 
   1 1 1 1 0 0 1 0 
   1 1 1 1 0 0 1 1 
   1 1 1 1 0 1 0 0 
   1 1 1 1 0 1 0 1 
   1 1 1 1 0 1 1 0 
   1 1 1 1 0 1 1 1 
   1 1 1 1 1 0 0 0 
   1 1 1 1 1 0 0 1 
   1 1 1 1 1 0 1 0 
   1 1 1 1 1 0 1 1 
   1 1 1 1 1 1 0 0 
   1 1 1 1 1 1 0 1 
   1 1 1 1 1 1 1 0 
   1 1 1 1 1 1 1 1 
   
/*    05 06 12 13 19 20 26 27  */
   0 0 0 0 0 0 0 0 
   0 0 0 0 0 0 0 1 
   0 0 0 0 0 0 1 0 
   0 0 0 0 0 0 1 1 
   0 0 0 0 0 1 0 0 
   0 0 0 0 0 1 0 1 
   0 0 0 0 0 1 1 0 
   0 0 0 0 0 1 1 1 
   0 0 0 0 1 0 0 0 
   0 0 0 0 1 0 0 1 
   0 0 0 0 1 0 1 0 
   0 0 0 0 1 0 1 1 
   0 0 0 0 1 1 0 0 
   0 0 0 0 1 1 0 1 
   0 0 0 0 1 1 1 0 
   0 0 0 0 1 1 1 1 
   0 0 0 1 0 0 0 0 
   0 0 0 1 0 0 0 1 
   0 0 0 1 0 0 1 0 
   0 0 0 1 0 0 1 1 
   0 0 0 1 0 1 0 0 
   0 0 0 1 0 1 0 1 
   0 0 0 1 0 1 1 0 
   0 0 0 1 0 1 1 1 
   0 0 0 1 1 0 0 0 
   0 0 0 1 1 0 0 1 
   0 0 0 1 1 0 1 0 
   0 0 0 1 1 0 1 1 
   0 0 0 1 1 1 0 0 
   0 0 0 1 1 1 0 1 
   0 0 0 1 1 1 1 0 
   0 0 0 1 1 1 1 1 
   0 0 1 0 0 0 0 0 
   0 0 1 0 0 0 0 1 
   0 0 1 0 0 0 1 0 
   0 0 1 0 0 0 1 1 
   0 0 1 0 0 1 0 0 
   0 0 1 0 0 1 0 1 
   0 0 1 0 0 1 1 0 
   0 0 1 0 0 1 1 1 
   0 0 1 0 1 0 0 0 
   0 0 1 0 1 0 0 1 
   0 0 1 0 1 0 1 0 
   0 0 1 0 1 0 1 1 
   0 0 1 0 1 1 0 0 
   0 0 1 0 1 1 0 1 
   0 0 1 0 1 1 1 0 
   0 0 1 0 1 1 1 1 
   0 0 1 1 0 0 0 0 
   0 0 1 1 0 0 0 1 
   0 0 1 1 0 0 1 0 
   0 0 1 1 0 0 1 1 
   0 0 1 1 0 1 0 0 
   0 0 1 1 0 1 0 1 
   0 0 1 1 0 1 1 0 
   0 0 1 1 0 1 1 1 
   0 0 1 1 1 0 0 0 
   0 0 1 1 1 0 0 1 
   0 0 1 1 1 0 1 0 
   0 0 1 1 1 0 1 1 
   0 0 1 1 1 1 0 0 
   0 0 1 1 1 1 0 1 
   0 0 1 1 1 1 1 0 
   0 0 1 1 1 1 1 1 
   0 1 0 0 0 0 0 0 
   0 1 0 0 0 0 0 1 
   0 1 0 0 0 0 1 0 
   0 1 0 0 0 0 1 1 
   0 1 0 0 0 1 0 0 
   0 1 0 0 0 1 0 1 
   0 1 0 0 0 1 1 0 
   0 1 0 0 0 1 1 1 
   0 1 0 0 1 0 0 0 
   0 1 0 0 1 0 0 1 
   0 1 0 0 1 0 1 0 
   0 1 0 0 1 0 1 1 
   0 1 0 0 1 1 0 0 
   0 1 0 0 1 1 0 1 
   0 1 0 0 1 1 1 0 
   0 1 0 0 1 1 1 1 
   0 1 0 1 0 0 0 0 
   0 1 0 1 0 0 0 1 
   0 1 0 1 0 0 1 0 
   0 1 0 1 0 0 1 1 
   0 1 0 1 0 1 0 0 
   0 1 0 1 0 1 0 1 
   0 1 0 1 0 1 1 0 
   0 1 0 1 0 1 1 1 
   0 1 0 1 1 0 0 0 
   0 1 0 1 1 0 0 1 
   0 1 0 1 1 0 1 0 
   0 1 0 1 1 0 1 1 
   0 1 0 1 1 1 0 0 
   0 1 0 1 1 1 0 1 
   0 1 0 1 1 1 1 0 
   0 1 0 1 1 1 1 1 
   0 1 1 0 0 0 0 0 
   0 1 1 0 0 0 0 1 
   0 1 1 0 0 0 1 0 
   0 1 1 0 0 0 1 1 
   0 1 1 0 0 1 0 0 
   0 1 1 0 0 1 0 1 
   0 1 1 0 0 1 1 0 
   0 1 1 0 0 1 1 1 
   0 1 1 0 1 0 0 0 
   0 1 1 0 1 0 0 1 
   0 1 1 0 1 0 1 0 
   0 1 1 0 1 0 1 1 
   0 1 1 0 1 1 0 0 
   0 1 1 0 1 1 0 1 
   0 1 1 0 1 1 1 0 
   0 1 1 0 1 1 1 1 
   0 1 1 1 0 0 0 0 
   0 1 1 1 0 0 0 1 
   0 1 1 1 0 0 1 0 
   0 1 1 1 0 0 1 1 
   0 1 1 1 0 1 0 0 
   0 1 1 1 0 1 0 1 
   0 1 1 1 0 1 1 0 
   0 1 1 1 0 1 1 1 
   0 1 1 1 1 0 0 0 
   0 1 1 1 1 0 0 1 
   0 1 1 1 1 0 1 0 
   0 1 1 1 1 0 1 1 
   0 1 1 1 1 1 0 0 
   0 1 1 1 1 1 0 1 
   0 1 1 1 1 1 1 0 
   0 1 1 1 1 1 1 1 
   1 0 0 0 0 0 0 0 
   1 0 0 0 0 0 0 1 
   1 0 0 0 0 0 1 0 
   1 0 0 0 0 0 1 1 
   1 0 0 0 0 1 0 0 
   1 0 0 0 0 1 0 1 
   1 0 0 0 0 1 1 0 
   1 0 0 0 0 1 1 1 
   1 0 0 0 1 0 0 0 
   1 0 0 0 1 0 0 1 
   1 0 0 0 1 0 1 0 
   1 0 0 0 1 0 1 1 
   1 0 0 0 1 1 0 0 
   1 0 0 0 1 1 0 1 
   1 0 0 0 1 1 1 0 
   1 0 0 0 1 1 1 1 
   1 0 0 1 0 0 0 0 
   1 0 0 1 0 0 0 1 
   1 0 0 1 0 0 1 0 
   1 0 0 1 0 0 1 1 
   1 0 0 1 0 1 0 0 
   1 0 0 1 0 1 0 1 
   1 0 0 1 0 1 1 0 
   1 0 0 1 0 1 1 1 
   1 0 0 1 1 0 0 0 
   1 0 0 1 1 0 0 1 
   1 0 0 1 1 0 1 0 
   1 0 0 1 1 0 1 1 
   1 0 0 1 1 1 0 0 
   1 0 0 1 1 1 0 1 
   1 0 0 1 1 1 1 0 
   1 0 0 1 1 1 1 1 
   1 0 1 0 0 0 0 0 
   1 0 1 0 0 0 0 1 
   1 0 1 0 0 0 1 0 
   1 0 1 0 0 0 1 1 
   1 0 1 0 0 1 0 0 
   1 0 1 0 0 1 0 1 
   1 0 1 0 0 1 1 0 
   1 0 1 0 0 1 1 1 
   1 0 1 0 1 0 0 0 
   1 0 1 0 1 0 0 1 
   1 0 1 0 1 0 1 0 
   1 0 1 0 1 0 1 1 
   1 0 1 0 1 1 0 0 
   1 0 1 0 1 1 0 1 
   1 0 1 0 1 1 1 0 
   1 0 1 0 1 1 1 1 
   1 0 1 1 0 0 0 0 
   1 0 1 1 0 0 0 1 
   1 0 1 1 0 0 1 0 
   1 0 1 1 0 0 1 1 
   1 0 1 1 0 1 0 0 
   1 0 1 1 0 1 0 1 
   1 0 1 1 0 1 1 0 
   1 0 1 1 0 1 1 1 
   1 0 1 1 1 0 0 0 
   1 0 1 1 1 0 0 1 
   1 0 1 1 1 0 1 0 
   1 0 1 1 1 0 1 1 
   1 0 1 1 1 1 0 0 
   1 0 1 1 1 1 0 1 
   1 0 1 1 1 1 1 0 
   1 0 1 1 1 1 1 1 
   1 1 0 0 0 0 0 0 
   1 1 0 0 0 0 0 1 
   1 1 0 0 0 0 1 0 
   1 1 0 0 0 0 1 1 
   1 1 0 0 0 1 0 0 
   1 1 0 0 0 1 0 1 
   1 1 0 0 0 1 1 0 
   1 1 0 0 0 1 1 1 
   1 1 0 0 1 0 0 0 
   1 1 0 0 1 0 0 1 
   1 1 0 0 1 0 1 0 
   1 1 0 0 1 0 1 1 
   1 1 0 0 1 1 0 0 
   1 1 0 0 1 1 0 1 
   1 1 0 0 1 1 1 0 
   1 1 0 0 1 1 1 1 
   1 1 0 1 0 0 0 0 
   1 1 0 1 0 0 0 1 
   1 1 0 1 0 0 1 0 
   1 1 0 1 0 0 1 1 
   1 1 0 1 0 1 0 0 
   1 1 0 1 0 1 0 1 
   1 1 0 1 0 1 1 0 
   1 1 0 1 0 1 1 1 
   1 1 0 1 1 0 0 0 
   1 1 0 1 1 0 0 1 
   1 1 0 1 1 0 1 0 
   1 1 0 1 1 0 1 1 
   1 1 0 1 1 1 0 0 
   1 1 0 1 1 1 0 1 
   1 1 0 1 1 1 1 0 
   1 1 0 1 1 1 1 1 
   1 1 1 0 0 0 0 0 
   1 1 1 0 0 0 0 1 
   1 1 1 0 0 0 1 0 
   1 1 1 0 0 0 1 1 
   1 1 1 0 0 1 0 0 
   1 1 1 0 0 1 0 1 
   1 1 1 0 0 1 1 0 
   1 1 1 0 0 1 1 1 
   1 1 1 0 1 0 0 0 
   1 1 1 0 1 0 0 1 
   1 1 1 0 1 0 1 0 
   1 1 1 0 1 0 1 1 
   1 1 1 0 1 1 0 0 
   1 1 1 0 1 1 0 1 
   1 1 1 0 1 1 1 0 
   1 1 1 0 1 1 1 1 
   1 1 1 1 0 0 0 0 
   1 1 1 1 0 0 0 1 
   1 1 1 1 0 0 1 0 
   1 1 1 1 0 0 1 1 
   1 1 1 1 0 1 0 0 
   1 1 1 1 0 1 0 1 
   1 1 1 1 0 1 1 0 
   1 1 1 1 0 1 1 1 
   1 1 1 1 1 0 0 0 
   1 1 1 1 1 0 0 1 
   1 1 1 1 1 0 1 0 
   1 1 1 1 1 0 1 1 
   1 1 1 1 1 1 0 0 
   1 1 1 1 1 1 0 1 
   1 1 1 1 1 1 1 0 
   1 1 1 1 1 1 1 1 
   
    ;

/*demanda de enfermeiros por dia e turno*/
param r :
      L   D   E   N   DH :=
1     6     3     6     4     1     /* 01/06/2010 - */
2     6     3     6     4     1     /* 02/06/2010 - */
3     6     3     6     4     1     /* 03/06/2010 - */
4     6     3     6     4     1     /* 04/06/2010 - */
5     3     2     3     2     1     /* 05/06/2010 - */
6     3     2     3     2     1     /* 06/06/2010 - */
7     6     3     6     4     1     /* 07/06/2010 - Monday*/
8     6     3     6     4     1     /* 08/06/2010 - */
9     6     3     6     4     1     /* 09/06/2010 - */
10     6     3     6     4     1     /* 10/06/2010 - */
11     6     3     6     4     1     /* 11/06/2010 - */
12     3     2     3     2     1     /* 12/06/2010 - */
13     3     2     3     2     1     /* 13/06/2010 - */
14     6     3     6     4     1     /* 14/06/2010 - Monday*/
15     6     3     6     4     1     /* 15/06/2010 - */
16     6     3     6     4     1     /* 16/06/2010 - */
17     6     3     6     4     1     /* 17/06/2010 - */
18     6     3     6     4     1     /* 18/06/2010 - */
19     3     2     3     2     1     /* 19/06/2010 - */
20     3     2     3     2     1     /* 20/06/2010 - */
21     6     3     6     4     1     /* 21/06/2010 - Monday*/
22     6     3     6     4     1     /* 22/06/2010 - */
23     6     3     6     4     1     /* 23/06/2010 - */
24     6     3     6     4     1     /* 24/06/2010 - */
25     6     3     6     4     1     /* 25/06/2010 - */
26     3     2     3     2     1     /* 26/06/2010 - */
27     3     2     3     2     1     /* 27/06/2010 - */
28     6     3     6     4     1     /* 28/06/2010 - Monday*/
    ;

/*tipo de contrato de cada enfermeiro*/
param cn := 
    N19   C2
    N17   C2
    N18   C2
    N15   C2
    N16   C2
    N13   C1
    N14   C1
    N11   C1
    N12   C1
    N21   C2
    N20   C2
    N22   C2
    N23   C2
    N24   C2
    N25   C3
    N26   C3
    N27   C3
    N28   C3
    N29   C3
    N3   C0
    N2   C0
    N10   C1
    N1   C0
    N0   C0
    N7   C0
    N6   C0
    N5   C0
    N4   C0
    N9   C0
    N8   C0
    ;

/*MaxNumAssignments*/
param na_Max := 
     C0   20
     C1   15
     C2   15
     C3   10
    ;

/*WeightMaxNumAssignments*/
param wna_Max := 
     C0   1
     C1   1
     C2   1
     C3   1
    ;

/*MinNumAssignments*/
param na_Min := 
     C0   10
     C1   6
     C2   4
     C3   6
    ;

/*WeightMinNumAssignments*/
param wna_Min := 
     C0   1
     C1   1
     C2   1
     C3   1
    ;

/*MaxConsecutiveWorkingDays*/
param nw_Max := 
     C0   5
     C1   7
     C2   4
     C3   7
    ;

/*WeightMaxConsecutiveWorkingDays*/
param wnw_Max := 
     C0   1
     C1   1
     C2   1
     C3   1
    ;

/*MinConsecutiveWorkingDays*/
param nw_Min := 
     C0   3
     C1   4
     C2   3
     C3   5
    ;

/*WeightMinConsecutiveWorkingDays*/
param wnw_Min := 
     C0   1
     C1   1
     C2   1
     C3   1
    ;

/*MaxConsecutiveFreeDays*/
param nf_Max := 
     C0   4
     C1   5
     C2   6
     C3   20
    ;

/*WeightMaxConsecutiveFreeDays*/
param wnf_Max := 
     C0   1
     C1   1
     C2   1
     C3   1
    ;

/*MinConsecutiveFreeDays*/
param nf_Min := 
     C0   2
     C1   3
     C2   4
     C3   10
    ;

/*WeightMinConsecutiveFreeDays*/
param wnf_Min := 
     C0   1
     C1   1
     C2   1
     C3   1
    ;

/*MaxConsecutiveWorkingWeekends*/
param nwec_Max := 
     C0   3
     C1   3
     C2   2
     C3   3
    ;

/*WeightMaxConsecutiveWorkingWeekends*/
param wnwec_Max := 
     C0   1
     C1   1
     C2   1
     C3   1
    ;

/*MinConsecutiveWorkingWeekends*/
param nwec_Min := 
     C0   2
     C1   2
     C2   1
     C3   2
    ;

/*WeightMinConsecutiveWorkingWeekends*/
param wnwec_Min := 
     C0   1
     C1   1
     C2   1
     C3   1
    ;

/*MaxWorkingWeekendsInFourWeeks*/
param nw4_Max := 
     C0   0
     C1   0
     C2   0
     C3   0
    ;

/*WeightMaxWorkingWeekendsInFourWeeks*/
param wnw4_Max := 
     C0   1
     C1   0
     C2   0
     C3   0
    ;

/*CompleteWeekends*/
param fw := 
     C0   1
     C1   1
     C2   1
     C3   1
    ;

/*WeightIdent.ShiftTypesDuringWeekend*/
param wfw := 
     C0   1
     C1   1
     C2   1
     C3   1
    ;

/*Ident.ShiftTypesDuringWeekend*/
param ssw := 
     C0   1
     C1   1
     C2   1
     C3   1
    ;

/*WeightIdent.ShiftTypesDuringWeekend*/
param wssw := 
     C0   1
     C1   1
     C2   1
     C3   1
    ;

/* NoNightShiftBeforeFreeWeekend */
param nnsbw := 
     C0   1
     C1   1
     C2   1
     C3   1
    ;

/*WeightNoNightShiftBeforeFreeWeekend*/
param wnnsbw := 
     C0   1
     C1   1
     C2   1
     C3   1
    ;

/*TwoFreeDaysAfterNightShifts*/
param nO := 
     C0   0
     C1   0
     C2   0
     C3   0
    ;

/* AlternativeSkillCategory */
param wAltS := 
     C0   1
     C1   1
     C2   1
     C3   1
    ;

param npit := 
     C0   8
     C1   8
     C2   8
     C3   8
    ;

param tpit := 
     C0   1   2
     C0   2   3
     C0   3   2
     C0   4   2
     C0   5   2
     C0   6   2
     C0   7   2
     C0   8   2
     C1   1   2
     C1   2   3
     C1   3   2
     C1   4   2
     C1   5   2
     C1   6   2
     C1   7   2
     C1   8   2
     C2   1   2
     C2   2   3
     C2   3   2
     C2   4   2
     C2   5   2
     C2   6   2
     C2   7   2
     C2   8   2
     C3   1   2
     C3   2   3
     C3   3   2
     C3   4   2
     C3   5   2
     C3   6   2
     C3   7   2
     C3   8   2
    ;

param cpit := 
     C0   1   1   L
     C0   1   2   D
     C0   2   1   D
     C0   2   2   E
     C0   2   3   D
     C0   3   1   L
     C0   3   2   E
     C0   4   1   D
     C0   4   2   N
     C0   5   1   N
     C0   5   2   D
     C0   6   1   N
     C0   6   2   E
     C0   7   1   L
     C0   7   2   DH
     C0   8   1   N
     C0   8   2   DH
     C1   1   1   L
     C1   1   2   D
     C1   2   1   D
     C1   2   2   E
     C1   2   3   D
     C1   3   1   L
     C1   3   2   E
     C1   4   1   D
     C1   4   2   N
     C1   5   1   N
     C1   5   2   D
     C1   6   1   N
     C1   6   2   E
     C1   7   1   L
     C1   7   2   DH
     C1   8   1   N
     C1   8   2   DH
     C2   1   1   L
     C2   1   2   D
     C2   2   1   D
     C2   2   2   E
     C2   2   3   D
     C2   3   1   L
     C2   3   2   E
     C2   4   1   D
     C2   4   2   N
     C2   5   1   N
     C2   5   2   D
     C2   6   1   N
     C2   6   2   E
     C2   7   1   L
     C2   7   2   DH
     C2   8   1   N
     C2   8   2   DH
     C3   1   1   L
     C3   1   2   D
     C3   2   1   D
     C3   2   2   E
     C3   2   3   D
     C3   3   1   L
     C3   3   2   E
     C3   4   1   D
     C3   4   2   N
     C3   5   1   N
     C3   5   2   D
     C3   6   1   N
     C3   6   2   E
     C3   7   1   L
     C3   7   2   DH
     C3   8   1   N
     C3   8   2   DH
    ;

param wpit := 
     C0   1   1
     C0   2   1
     C0   3   1
     C0   4   1
     C0   5   1
     C0   6   1
     C0   7   1
     C0   8   1
     C1   1   1
     C1   2   1
     C1   3   1
     C1   4   1
     C1   5   1
     C1   6   1
     C1   7   1
     C1   8   1
     C2   1   1
     C2   2   1
     C2   3   1
     C2   4   1
     C2   5   1
     C2   6   1
     C2   7   1
     C2   8   1
     C3   1   1
     C3   2   1
     C3   3   1
     C3   4   1
     C3   5   1
     C3   6   1
     C3   7   1
     C3   8   1
    ;

param npid := 
     C0   12
     C1   12
     C2   12
     C3   12
    ;

param tpid := 
     C0   1   3
     C0   2   3
     C0   3   3
     C0   4   3
     C0   5   3
     C0   6   3
     C0   7   3
     C0   8   3
     C0   9   3
     C0   10   3
     C0   11   3
     C0   12   3
     C1   1   3
     C1   2   3
     C1   3   3
     C1   4   3
     C1   5   3
     C1   6   3
     C1   7   3
     C1   8   3
     C1   9   3
     C1   10   3
     C1   11   3
     C1   12   3
     C2   1   3
     C2   2   3
     C2   3   3
     C2   4   3
     C2   5   3
     C2   6   3
     C2   7   3
     C2   8   3
     C2   9   3
     C2   10   3
     C2   11   3
     C2   12   3
     C3   1   3
     C3   2   3
     C3   3   3
     C3   4   3
     C3   5   3
     C3   6   3
     C3   7   3
     C3   8   3
     C3   9   3
     C3   10   3
     C3   11   3
     C3   12   3
    ;

param cpid := 
     C0   1   1   -4
     C0   1   2   5
     C0   1   3   6
     C0   2   1   -4
     C0   2   2   -5
     C0   2   3   6
     C0   3   1   -4
     C0   3   2   5
     C0   3   3   -6
     C0   4   1   -11
     C0   4   2   12
     C0   4   3   13
     C0   5   1   -11
     C0   5   2   -12
     C0   5   3   13
     C0   6   1   -11
     C0   6   2   12
     C0   6   3   -13
     C0   7   1   -18
     C0   7   2   19
     C0   7   3   20
     C0   8   1   -18
     C0   8   2   -19
     C0   8   3   20
     C0   9   1   -18
     C0   9   2   19
     C0   9   3   -20
     C0   10   1   -25
     C0   10   2   26
     C0   10   3   27
     C0   11   1   -25
     C0   11   2   -26
     C0   11   3   27
     C0   12   1   -25
     C0   12   2   26
     C0   12   3   -27
     C1   1   1   -4
     C1   1   2   5
     C1   1   3   6
     C1   2   1   -4
     C1   2   2   -5
     C1   2   3   6
     C1   3   1   -4
     C1   3   2   5
     C1   3   3   -6
     C1   4   1   -11
     C1   4   2   12
     C1   4   3   13
     C1   5   1   -11
     C1   5   2   -12
     C1   5   3   13
     C1   6   1   -11
     C1   6   2   12
     C1   6   3   -13
     C1   7   1   -18
     C1   7   2   19
     C1   7   3   20
     C1   8   1   -18
     C1   8   2   -19
     C1   8   3   20
     C1   9   1   -18
     C1   9   2   19
     C1   9   3   -20
     C1   10   1   -25
     C1   10   2   26
     C1   10   3   27
     C1   11   1   -25
     C1   11   2   -26
     C1   11   3   27
     C1   12   1   -25
     C1   12   2   26
     C1   12   3   -27
     C2   1   1   -4
     C2   1   2   5
     C2   1   3   6
     C2   2   1   -4
     C2   2   2   -5
     C2   2   3   6
     C2   3   1   -4
     C2   3   2   5
     C2   3   3   -6
     C2   4   1   -11
     C2   4   2   12
     C2   4   3   13
     C2   5   1   -11
     C2   5   2   -12
     C2   5   3   13
     C2   6   1   -11
     C2   6   2   12
     C2   6   3   -13
     C2   7   1   -18
     C2   7   2   19
     C2   7   3   20
     C2   8   1   -18
     C2   8   2   -19
     C2   8   3   20
     C2   9   1   -18
     C2   9   2   19
     C2   9   3   -20
     C2   10   1   -25
     C2   10   2   26
     C2   10   3   27
     C2   11   1   -25
     C2   11   2   -26
     C2   11   3   27
     C2   12   1   -25
     C2   12   2   26
     C2   12   3   -27
     C3   1   1   -4
     C3   1   2   5
     C3   1   3   6
     C3   2   1   -4
     C3   2   2   -5
     C3   2   3   6
     C3   3   1   -4
     C3   3   2   5
     C3   3   3   -6
     C3   4   1   -11
     C3   4   2   12
     C3   4   3   13
     C3   5   1   -11
     C3   5   2   -12
     C3   5   3   13
     C3   6   1   -11
     C3   6   2   12
     C3   6   3   -13
     C3   7   1   -18
     C3   7   2   19
     C3   7   3   20
     C3   8   1   -18
     C3   8   2   -19
     C3   8   3   20
     C3   9   1   -18
     C3   9   2   19
     C3   9   3   -20
     C3   10   1   -25
     C3   10   2   26
     C3   10   3   27
     C3   11   1   -25
     C3   11   2   -26
     C3   11   3   27
     C3   12   1   -25
     C3   12   2   26
     C3   12   3   -27
    ;

param wpid := 
     C0   1   1
     C0   2   1
     C0   3   1
     C0   4   1
     C0   5   1
     C0   6   1
     C0   7   1
     C0   8   1
     C0   9   1
     C0   10   1
     C0   11   1
     C0   12   1
     C1   1   1
     C1   2   1
     C1   3   1
     C1   4   1
     C1   5   1
     C1   6   1
     C1   7   1
     C1   8   1
     C1   9   1
     C1   10   1
     C1   11   1
     C1   12   1
     C2   1   1
     C2   2   1
     C2   3   1
     C2   4   1
     C2   5   1
     C2   6   1
     C2   7   1
     C2   8   1
     C2   9   1
     C2   10   1
     C2   11   1
     C2   12   1
     C3   1   1
     C3   2   1
     C3   3   1
     C3   4   1
     C3   5   1
     C3   6   1
     C3   7   1
     C3   8   1
     C3   9   1
     C3   10   1
     C3   11   1
     C3   12   1
    ;

end;
